
Starting CP-SAT solver v9.15.6755
Parameters: random_seed: 2026073621 max_time_in_seconds: 2500 log_search_progress: true cp_model_presolve: true linearization_level: 2 num_search_workers: 4 cp_model_probing_level: 2 symmetry_level: 2

Initial satisfaction model '': (model_fingerprint: 0x9a23d2243dc3a481)
#Variables: 724 (608 primary variables)
  - 724 Booleans in [0,1]
#kBoolAnd: 110 (#enforced: 110) (#literals: 330)
#kBoolOr: 110 (#enforced: 110) (#literals: 220)
#kExactlyOne: 87 (#literals: 261)
#kLinear1: 32 (#enforced: 6)
#kLinear2: 336 (#enforced: 336) (#complex_domain: 110)
#kLinear3: 1'600 (#enforced: 6)
#kLinearN: 1'132 (#enforced: 243) (#terms: 9'111)

Starting presolve at 0.00s
  4.59e-04s  0.00e+00d  [DetectDominanceRelations] 
  5.77e-03s  0.00e+00d  [PresolveToFixPoint] #num_loops=3 #num_dual_strengthening=1 
  2.42e-05s  0.00e+00d  [ExtractEncodingFromLinear] #potential_supersets=86 
  2.16e-04s  0.00e+00d  [DetectDuplicateColumns] 
  6.87e-05s  0.00e+00d  [DetectDuplicateConstraints] #duplicates=5 
[Symmetry] Graph for symmetry has 4'868 nodes and 15'708 arcs.
[Symmetry] Symmetry computation done. time: 0.000867779 dtime: 0.0018189
[SAT presolve] num removable Booleans: 220 / 626
[SAT presolve] num trivial clauses: 0
[SAT presolve] [0s] clauses:2'732 literals:7'430 vars:506 one_side_vars:66 simple_definition:1 singleton_clauses:0
[SAT presolve] [0.00016647s] clauses:2'731 literals:7'423 vars:506 one_side_vars:66 simple_definition:1 singleton_clauses:0
[SAT presolve] [0.00045948s] clauses:2'410 literals:6'918 vars:389 one_side_vars:68 simple_definition:24 singleton_clauses:0
  9.53e-05s  0.00e+00d  [DetectDuplicateConstraintsWithDifferentEnforcements] #without_enforcements=2 
  3.99e-03s  2.73e-03d  [Probe] #probed=1'301 #fixed_bools=15 #equiv=8 #new_binary_clauses=805 
  4.17e-04s  3.85e-04d  [MaxClique] Merged 655 constraints with 1'449 literals into 572 constraints with 1'312 literals
  5.80e-04s  0.00e+00d  [DetectDominanceRelations] 
  2.23e-03s  0.00e+00d  [PresolveToFixPoint] #num_loops=1 #num_dual_strengthening=1 
  9.20e-04s  0.00e+00d  [ProcessAtMostOneAndLinear] 
  7.54e-05s  0.00e+00d  [DetectDuplicateConstraints] #duplicates=10 
  5.82e-05s  0.00e+00d  [DetectDuplicateConstraintsWithDifferentEnforcements] 
  2.41e-03s  1.04e-04d  [DetectDominatedLinearConstraints] #relevant_constraints=819 #num_inclusions=508 #num_redundant=6 
  8.85e-05s  0.00e+00d  [DetectDifferentVariables] 
  5.68e-04s  8.72e-05d  [ProcessSetPPC] #relevant_constraints=3'156 #num_inclusions=217 
  2.21e-04s  3.44e-05d  [TransformClausesToExactlyOne] #num_amos=576 #num_clauses=1'766 #num_checked=1'766 
  3.57e-05s  0.00e+00d  [DetectEncodedComplexDomains] 
  2.33e-05s  9.00e-08d  [FindAlmostIdenticalLinearConstraints] #num_tested_pairs=1 
  6.93e-04s  1.39e-03d  [FindBigAtMostOneAndLinearOverlap] 
  1.09e-03s  1.18e-03d  [FindBigVerticalLinearOverlap] #blocks=2 #saved_nz=68 
  2.48e-04s  6.65e-04d  [FindBigHorizontalLinearOverlap] #linears=454 
  2.45e-04s  2.79e-05d  [MergeClauses] #num_collisions=4 #num_merges=4 #num_saved_literals=17 
  5.72e-04s  0.00e+00d  [DetectDominanceRelations] 
  2.13e-03s  0.00e+00d  [PresolveToFixPoint] #num_loops=2 #num_dual_strengthening=1 
  5.58e-04s  0.00e+00d  [DetectDominanceRelations] 
  2.05e-03s  0.00e+00d  [PresolveToFixPoint] #num_loops=1 #num_dual_strengthening=1 
  1.33e-04s  0.00e+00d  [DetectDuplicateColumns] 
  6.56e-05s  0.00e+00d  [DetectDuplicateConstraints] 
[Symmetry] Graph for symmetry has 4'467 nodes and 13'940 arcs.
[Symmetry] Symmetry computation done. time: 0.000778664 dtime: 0.00158798
[SAT presolve] num removable Booleans: 102 / 486
[SAT presolve] num trivial clauses: 0
[SAT presolve] [0s] clauses:2'293 literals:6'634 vars:461 one_side_vars:146 simple_definition:33 singleton_clauses:0
[SAT presolve] [0.000171682s] clauses:2'293 literals:6'475 vars:461 one_side_vars:159 simple_definition:82 singleton_clauses:0
[SAT presolve] [0.000271402s] clauses:2'158 literals:6'170 vars:455 one_side_vars:185 simple_definition:60 singleton_clauses:0
  1.22e-04s  0.00e+00d  [DetectDuplicateConstraintsWithDifferentEnforcements] 
  3.23e-03s  1.71e-03d  [Probe] #probed=1'286 #new_binary_clauses=342 
  3.15e-04s  2.72e-04d  [MaxClique] Merged 500 constraints with 1'102 literals into 496 constraints with 1'102 literals
  5.82e-04s  0.00e+00d  [DetectDominanceRelations] 
  2.13e-03s  0.00e+00d  [PresolveToFixPoint] #num_loops=1 #num_dual_strengthening=1 
  8.49e-04s  0.00e+00d  [ProcessAtMostOneAndLinear] 
  6.90e-05s  0.00e+00d  [DetectDuplicateConstraints] 
  5.82e-05s  0.00e+00d  [DetectDuplicateConstraintsWithDifferentEnforcements] 
  7.62e-04s  6.00e-05d  [DetectDominatedLinearConstraints] #relevant_constraints=810 #num_inclusions=315 #num_redundant=1 
  9.52e-05s  0.00e+00d  [DetectDifferentVariables] 
  5.35e-04s  7.71e-05d  [ProcessSetPPC] #relevant_constraints=3'064 #num_inclusions=108 
  2.37e-04s  3.26e-05d  [TransformClausesToExactlyOne] #num_amos=496 #num_clauses=1'705 #num_checked=1'705 
  3.79e-05s  0.00e+00d  [DetectEncodedComplexDomains] 
  3.05e-05s  1.80e-07d  [FindAlmostIdenticalLinearConstraints] #num_tested_pairs=2 
  6.62e-04s  1.23e-03d  [FindBigAtMostOneAndLinearOverlap] 
  1.03e-03s  1.07e-03d  [FindBigVerticalLinearOverlap] #blocks=2 #saved_nz=68 
  2.37e-04s  5.64e-04d  [FindBigHorizontalLinearOverlap] #linears=450 
  2.29e-04s  2.63e-05d  [MergeClauses] #num_collisions=76 #num_merges=76 #num_saved_literals=198 
  5.81e-04s  0.00e+00d  [DetectDominanceRelations] 
  2.11e-03s  0.00e+00d  [PresolveToFixPoint] #num_loops=2 #num_dual_strengthening=1 
  5.73e-04s  0.00e+00d  [DetectDominanceRelations] 
  2.13e-03s  0.00e+00d  [PresolveToFixPoint] #num_loops=1 #num_dual_strengthening=1 
  1.68e-04s  0.00e+00d  [DetectDuplicateColumns] 
  1.04e-04s  0.00e+00d  [DetectDuplicateConstraints] 
[Symmetry] Graph for symmetry has 4'258 nodes and 13'101 arcs.
[Symmetry] Symmetry computation done. time: 0.000730819 dtime: 0.00140713
[SAT presolve] num removable Booleans: 96 / 480
[SAT presolve] num trivial clauses: 0
[SAT presolve] [0s] clauses:2'151 literals:6'146 vars:455 one_side_vars:187 simple_definition:60 singleton_clauses:0
[SAT presolve] [0.000165497s] clauses:2'151 literals:6'146 vars:455 one_side_vars:187 simple_definition:60 singleton_clauses:0
[SAT presolve] [0.000212696s] clauses:2'151 literals:6'146 vars:455 one_side_vars:187 simple_definition:60 singleton_clauses:0
  1.11e-04s  0.00e+00d  [DetectDuplicateConstraintsWithDifferentEnforcements] 
  3.26e-03s  1.69e-03d  [Probe] #probed=1'286 #new_binary_clauses=341 
  3.15e-04s  2.68e-04d  [MaxClique] Merged 495 constraints with 1'092 literals into 494 constraints with 1'091 literals
  6.15e-04s  0.00e+00d  [DetectDominanceRelations] 
  2.18e-03s  0.00e+00d  [PresolveToFixPoint] #num_loops=1 #num_dual_strengthening=1 
  8.49e-04s  0.00e+00d  [ProcessAtMostOneAndLinear] 
  8.91e-05s  0.00e+00d  [DetectDuplicateConstraints] 
  7.17e-05s  0.00e+00d  [DetectDuplicateConstraintsWithDifferentEnforcements] 
  5.67e-04s  5.49e-05d  [DetectDominatedLinearConstraints] #relevant_constraints=806 #num_inclusions=289 #num_redundant=1 
  1.04e-04s  0.00e+00d  [DetectDifferentVariables] 
  5.45e-04s  7.29e-05d  [ProcessSetPPC] #relevant_constraints=3'058 #num_inclusions=87 
  2.16e-04s  3.26e-05d  [TransformClausesToExactlyOne] #num_amos=494 #num_clauses=1'705 #num_checked=1'705 
  4.34e-05s  0.00e+00d  [DetectEncodedComplexDomains] 
  3.73e-05s  1.00e-07d  [FindAlmostIdenticalLinearConstraints] #num_tested_pairs=1 
  6.28e-04s  1.11e-03d  [FindBigAtMostOneAndLinearOverlap] 
  9.61e-04s  9.58e-04d  [FindBigVerticalLinearOverlap] #blocks=1 #saved_nz=30 
  2.28e-04s  5.29e-04d  [FindBigHorizontalLinearOverlap] #linears=451 
  2.56e-04s  2.63e-05d  [MergeClauses] #num_collisions=76 #num_merges=76 #num_saved_literals=198 
  6.49e-04s  0.00e+00d  [DetectDominanceRelations] 
  2.26e-03s  0.00e+00d  [PresolveToFixPoint] #num_loops=2 #num_dual_strengthening=1 
  2.06e-05s  0.00e+00d  [MergeNoOverlap] 
  1.30e-05s  0.00e+00d  [MergeNoOverlap2D] 

Presolve summary:
  - 42 affine relations were detected.
  - rule 'TODO dual: only one blocking constraint?' was applied 855 times.
  - rule 'TODO linear inclusion: superset is equality' was applied 194 times.
  - rule 'affine: new relation' was applied 42 times.
  - rule 'at_most_one: removed literals' was applied 51 times.
  - rule 'at_most_one: size one' was applied 50 times.
  - rule 'at_most_one: transformed into max clique' was applied 3 times.
  - rule 'bool_or: implications' was applied 62 times.
  - rule 'bool_or: only one literal' was applied 12 times.
  - rule 'bool_or: removed enforcement literal' was applied 557 times.
  - rule 'deductions: 857 stored' was applied 1 time.
  - rule 'duplicate: merged rhs of linear constraint' was applied 14 times.
  - rule 'duplicate: removed constraint' was applied 15 times.
  - rule 'duplicate: removed enforced constraint' was applied 2 times.
  - rule 'enforcement: false literal' was applied 38 times.
  - rule 'enforcement: true literal' was applied 12 times.
  - rule 'exactly_one: removed literals' was applied 32 times.
  - rule 'exactly_one: satisfied' was applied 3 times.
  - rule 'exactly_one: singleton' was applied 2 times.
  - rule 'exactly_one: size two' was applied 30 times.
  - rule 'exactly_one: x and not(x)' was applied 5 times.
  - rule 'incompatible linear: add implication' was applied 129 times.
  - rule 'linear + amo: empty after processing' was applied 6 times.
  - rule 'linear + amo: extracted enforcement literal' was applied 56 times.
  - rule 'linear + amo: trivial linear constraint' was applied 1 time.
  - rule 'linear inclusion: redundant containing constraint' was applied 2 times.
  - rule 'linear inclusion: redundant included constraint' was applied 3 times.
  - rule 'linear inclusion: sparsify superset' was applied 3 times.
  - rule 'linear matrix: common vertical rectangle' was applied 5 times.
  - rule 'linear1: always true' was applied 4 times.
  - rule 'linear1: x in domain' was applied 26 times.
  - rule 'linear2: convert ax + by != cte to clauses' was applied 258 times.
  - rule 'linear2: convert implied ax + by == cte to clauses' was applied 114 times.
  - rule 'linear2: implied ax + by = cte has only one solution' was applied 8 times.
  - rule 'linear: always true' was applied 416 times.
  - rule 'linear: empty' was applied 9 times.
  - rule 'linear: enforcement literal in expression' was applied 8 times.
  - rule 'linear: extracted at most one (max)' was applied 1 time.
  - rule 'linear: fixed or dup variables' was applied 888 times.
  - rule 'linear: negative clause' was applied 1'299 times.
  - rule 'linear: negative reified and' was applied 78 times.
  - rule 'linear: never in domain' was applied 6 times.
  - rule 'linear: positive at most one' was applied 34 times.
  - rule 'linear: reduced variable domains' was applied 6 times.
  - rule 'linear: remapped using affine relations' was applied 36 times.
  - rule 'presolve: 81 unused variables removed.' was applied 1 time.
  - rule 'presolve: iteration' was applied 3 times.
  - rule 'probing: bool_or reduced to implication' was applied 22 times.
  - rule 'probing: simplified clauses' was applied 17 times.
  - rule 'setppc: bool_or in at_most_one' was applied 7 times.
  - rule 'setppc: removed dominated constraints' was applied 91 times.
  - rule 'variables: both boolean and its negation fix the same variable' was applied 4 times.
  - rule 'variables: detect half reified value encoding' was applied 8 times.

Presolved satisfaction model '': (model_fingerprint: 0x6167287450d323a9)
#Variables: 481 (411 primary variables)
  - 480 Booleans in [0,1]
  - 1 in [0,2]
#kAtMostOne: 50 (#literals: 203)
#kBoolAnd: 261 (#enforced: 261) (#literals: 705)
#kBoolAndClauses: 76 (#enforced: 76 #multi: 76) (#literals: 350)
#kBoolOr: 1'553 (#literals: 4'706)
#kExactlyOne: 53 (#literals: 203)
#kLinearN: 807 (#enforced: 116) (#terms: 5'595)
[Symmetry] Graph for symmetry has 4'013 nodes and 13'054 arcs.
[Symmetry] Symmetry computation done. time: 0.000629108 dtime: 0.00134826

Preloading model.
#Model   0.07s var:481/481 constraints:2800/2800

Starting search at 0.07s with 4 workers.
3 full problem subsolvers: [default_lp, max_lp, no_lp]
1 first solution subsolver: [fj]
2 interleaved subsolvers: [feasibility_pump, rins/rens]
2 helper subsolvers: [neighborhood_helper, synchronization_agent]

#Model   0.28s var:479/481 constraints:2799/2800
#Model   0.58s var:477/481 constraints:2799/2800
#Model  26.48s var:476/481 constraints:2797/2800
#Model  68.74s var:475/481 constraints:2795/2800
#Model 701.05s var:474/481 constraints:2794/2800
#Model 968.63s var:466/481 constraints:2684/2800
#Model 1112.67s var:465/481 constraints:2665/2800
#Model 1131.96s var:464/481 constraints:2645/2800
#Model 1132.61s var:459/481 constraints:2612/2800
#Model 1137.66s var:458/481 constraints:2591/2800
#Model 1140.70s var:456/481 constraints:2555/2800
#Model 1141.99s var:455/481 constraints:2537/2800
#Model 1143.49s var:454/481 constraints:2519/2800
#Model 1144.01s var:452/481 constraints:2479/2800
#Model 1144.38s var:441/481 constraints:2342/2800
#Done  1144.40s no_lp

Task timing                   n [     min,      max]      avg      dev     time         n [     min,      max]      avg      dev    dtime
        'default_lp':         1 [  19.07m,   19.07m]   19.07m   0.00ns   19.07m         2 [  1.92ms,   29.44m]   14.72m   14.72m   29.44m
  'feasibility_pump':      6836 [477.21us, 106.08ms] 934.39us   1.28ms    6.39s      6835 [268.53us, 127.45ms] 287.68us   1.54ms    1.97s
                'fj':      6836 [ 71.56ms, 129.49ms]  93.78ms   5.83ms   10.68m      6836 [100.00ms, 100.14ms] 100.02ms  14.00us   11.40m
            'max_lp':         1 [  19.07m,   19.07m]   19.07m   0.00ns   19.07m         2 [ 98.98ms,   37.70m]   18.85m   18.85m   37.70m
             'no_lp':         1 [  19.07m,   19.07m]   19.07m   0.00ns   19.07m         2 [  1.51ms,   52.28m]   26.14m   26.14m   52.28m
         'rins/rens':      6837 [179.01us, 121.18ms]  72.59ms  27.48ms    8.27m      6833 [ 92.51us, 100.32ms]  68.39ms  36.87ms    7.79m

Search stats     Bools   Conflicts    Branches  Restarts  BacktrackToRoot   Backtrack     BoolPropag  IntegerPropag
  'default_lp':    480     180'605   7'604'627       856        1'210'232   1'702'937     74'472'069     71'968'244
      'max_lp':    480      80'819   9'462'876       449        1'479'505   1'914'227     89'245'406     94'256'963
       'no_lp':    480  15'525'307  21'312'398    50'911          470'773  15'924'952  1'333'077'413    246'710'130

SAT formula      Fixed  Equiv  Total  VarLeft  BinaryClauses  PermanentClauses  TemporaryClauses
  'default_lp':     27     11    480      442          3'608            18'651             2'329
      'max_lp':     16      8    480      456          3'046            29'533             5'810
       'no_lp':    236     11    480      233          3'568            30'288             2'766

SAT stats        ClassicMinim   LitRemoved  LitRemovedBinary   LitLearned  LitForgotten   Subsumed
  'default_lp':       158'531    2'039'800           950'312    4'600'579     2'593'338     72'194
      'max_lp':        67'231      724'423           400'214    1'683'491       736'326     32'724
       'no_lp':    13'936'310  221'382'124        80'090'044  359'353'694   281'786'862  4'288'518

Vivification       Clauses  Decisions  LitTrue  Subsumed  LitRemoved  DecisionReused  Conflicts
  'default_lp':  1'290'152  7'156'539       86    21'063     221'474         395'487      2'357
      'max_lp':  1'546'412  9'076'427        1    20'381     211'306         431'930      2'032
       'no_lp':    364'275  3'091'540        3    28'985     376'281          90'864      2'051

Clause deletion    at_true  l_and_not(l)  to_binary  sub_conflict  sub_extra  sub_decisions  sub_eager  sub_vivify  sub_probing  sub_inpro  blocked  eliminated   forgotten    promoted   conflicts
    'default_lp':   18'338           168         88        71'066        425          2'801      1'128      21'063        9'827     23'631        0           0      76'242     335'698     180'605
        'max_lp':    7'407            63         37        32'412        198            938        312      20'381        6'174     13'692        0           0      26'948     140'757      80'819
         'no_lp':   85'252           212        148     4'216'969     29'130        165'054     71'549      28'985       23'655    156'597        0           0  10'721'278  34'930'942  15'525'307

Lp stats         Component  Iterations  AddedCuts  OPTIMAL  DUAL_F.  DUAL_U.
  'default_lp':          1  21'832'037     54'595  230'595        0  132'101
      'max_lp':          1   9'754'877     55'394   24'658   52'570   22'652

Lp dimension        Final dimension of first component
  'default_lp':   347 rows, 338 columns, 11383 entries
      'max_lp':  1225 rows, 481 columns, 10367 entries

Lp debug         CutPropag  CutEqPropag   Adjust  Overflow        Bad  BadScaling
  'default_lp':          0           58  132'077         0  1'421'815           0
      'max_lp':          0          355   22'651         0  1'480'404           0

Lp pool          Constraints  Updates  Simplif  Merged  Shortened  Split  Strengthened      Cuts/Call
  'default_lp':       10'366   11'563        0       0         87      0             0  54'595/59'457
      'max_lp':       12'522   18'610        0       4        122      0         1'254  55'394/76'636

Lp Cut            default_lp  max_lp
          CG_FF:         660     136
           CG_K:         278      11
          CG_KL:         258       6
           CG_R:         741     100
         Clique:           -     178
             IB:           2       2
       MIR_1_FF:         295     622
        MIR_1_K:          58      17
       MIR_1_KL:         205      13
        MIR_1_R:         274     300
      MIR_1_RLT:           -   5'216
       MIR_2_FF:         311     387
        MIR_2_K:          57      49
       MIR_2_KL:         156      23
        MIR_2_R:         401     434
       MIR_2_RB:           -       2
      MIR_2_RBP:           -       1
       MIR_3_FF:         177     127
        MIR_3_K:          34      15
       MIR_3_KL:          70      16
        MIR_3_R:         218     235
       MIR_3_RB:           -       1
      MIR_3_RBP:           -       6
       MIR_4_FF:          51      27
        MIR_4_K:           9       4
       MIR_4_KL:          24       3
        MIR_4_R:         174     149
       MIR_5_FF:          13       9
        MIR_5_K:           3       -
       MIR_5_KL:           4       -
        MIR_5_R:         125     121
       MIR_6_FF:          12       7
        MIR_6_K:           -       1
       MIR_6_KL:           4       1
        MIR_6_R:          68     104
       MIR_6_RB:           -       2
      MIR_6_RBP:           -       2
   ZERO_HALF_FF:         240     481
    ZERO_HALF_K:          36      11
   ZERO_HALF_KL:          48       5
    ZERO_HALF_R:      49'555  46'551
   ZERO_HALF_RB:           -       1
  ZERO_HALF_RBP:          34      18

LNS stats       Improv/Calls  Closed  Difficulty  TimeLimit
  'rins/rens':     6834/6834     50%    7.87e-01       0.10

LS stats                                    Batches  Restarts/Perturbs    LinMoves   GenMoves  CompoundMoves  Bactracks  WeightUpdates  ScoreComputed
                             'fj_restart':      254                 99   7'943'700          0              0          0      6'702'795        985'963
                    'fj_restart_compound':      326                 98           0  3'753'905        238'447  1'757'530          8'548     59'140'289
                'fj_restart_compound_obj':      590                107           0  6'796'088        288'252  3'253'691         20'671    107'494'008
            'fj_restart_compound_perturb':      340                 83           0  3'949'474        200'969  1'874'075         10'599     61'699'017
        'fj_restart_compound_perturb_obj':      387                111           0  4'461'595        279'466  2'090'801         10'293     70'205'673
                       'fj_restart_decay':      290                 89   9'935'781          0              0          0        428'186        833'172
              'fj_restart_decay_compound':      757                118           0  9'897'944      1'633'500  4'131'919         10'453    139'476'092
          'fj_restart_decay_compound_obj':      515                100           0  6'628'702      1'104'016  2'762'062          7'098     94'963'757
      'fj_restart_decay_compound_perturb':      315                 95           0  3'865'848        650'027  1'607'648          4'417     57'788'916
  'fj_restart_decay_compound_perturb_obj':      237                 95           0  2'827'220        472'247  1'177'252          3'315     43'315'034
                   'fj_restart_decay_obj':      327                 75  11'214'635          0              0          0        482'412        944'432
               'fj_restart_decay_perturb':      609                 77  20'796'430          0              0          0        903'277      1'753'858
           'fj_restart_decay_perturb_obj':      861                111  29'572'333          0              0          0      1'270'567      2'503'720
                         'fj_restart_obj':      394                101  12'045'509          0              0          0     10'564'827      1'957'153
                     'fj_restart_perturb':      331                101   9'984'554          0              0          0      8'762'670      1'174'136
                 'fj_restart_perturb_obj':      303                 85   9'603'439          0              0          0      8'089'272        986'821

Solution repositories    Added  Queried  Synchro
    'alternative_path':      0        0        0
      'best_solutions':      0        0        0
   'fj solution hints':  1'537        0    1'537
        'lp solutions':    742    6'837      730
                'pump':      0        0

Improving bounds shared    Num  Sym
            'default_lp':    4    0
                'max_lp':    1    0
                 'no_lp':  153    0

Clauses shared    #Exported  #Imported  #BinaryRead  #BinaryTotal
   'default_lp':      5'341     66'686        1'662         1'755
       'max_lp':      4'397     62'163        1'144         1'755
        'no_lp':     66'514      9'512        1'755         1'755

LRAT_status: NA
CpSolverResponse summary:
status: INFEASIBLE
objective: NA
best_bound: NA
integers: 338
booleans: 480
conflicts: 15525307
branches: 21312398
propagations: 1333077413
integer_propagations: 246710130
restarts: 50911
lp_iterations: 0
walltime: 1144.41
usertime: 1144.41
deterministic_time: 8318.33
gap_integral: 0

{
  "board_size": 22,
  "parity_proved": 0,
  "target": 34,
  "child_id": 1521,
  "child_count": 2640,
  "partition": "unknown_pair_x_diag_plus_twos_x_diag_minus_twos",
  "build_seconds": 0.053563833236694336,
  "workers": 4,
  "requested_seed": 2026073621,
  "effective_seed": 2026073621,
  "main_diagonal_pair": [
    3,
    16
  ],
  "pair_index": 69,
  "diag_plus_twos": 16,
  "diag_minus_twos": 15,
  "pair_excess": 0,
  "residual_certificate_slack": 112,
  "analytic_minimum_line_defect": 46,
  "analytic_defect_details": {
    "row_costs": {
      "12": 6,
      "13": 3,
      "14": 0,
      "15": 0,
      "16": 0,
      "17": 0
    },
    "column_costs": {
      "12": 6,
      "13": 3,
      "14": 0,
      "15": 0,
      "16": 0,
      "17": 0
    },
    "plus_cost": 24,
    "minus_cost": 22,
    "row_column_minimum": 0
  },
  "maximal_line_constraints": 2455,
  "analytic_infeasible": false,
  "allowed_points": 242,
  "status": "INFEASIBLE",
  "proof_method": "cp_sat_all_lines_with_certificate_profile_cuts",
  "elapsed_seconds": 1144.4079990386963,
  "branches": 21312398,
  "conflicts": 15525307
}
